c colouring generated by benchmark framework
p edge 689 23426
v 1 27
v 2 16
v 3 1
v 4 23
v 5 0
v 6 18
v 7 13
v 8 9
v 9 22
v 10 10
v 11 3
v 12 33
v 13 7
v 14 32
v 15 26
v 16 22
v 17 4
v 18 5
v 19 30
v 20 25
v 21 11
v 22 20
v 23 20
v 24 28
v 25 2
v 26 17
v 27 2
v 28 25
v 29 29
v 30 4
v 31 18
v 32 6
v 33 6
v 34 30
v 35 15
v 36 14
v 37 12
v 38 16
v 39 11
v 40 8
v 41 24
v 42 23
v 43 13
v 44 24
v 45 10
v 46 13
v 47 23
v 48 9
v 49 7
v 50 16
v 51 14
v 52 7
v 53 1
v 54 9
v 55 19
v 56 7
v 57 5
v 58 26
v 59 21
v 60 12
v 61 3
v 62 1
v 63 17
v 64 5
v 65 22
v 66 3
v 67 0
v 68 22
v 69 25
v 70 4
v 71 4
v 72 21
v 73 20
v 74 19
v 75 8
v 76 2
v 77 28
v 78 11
v 79 18
v 80 10
v 81 17
v 82 23
v 83 24
v 84 30
v 85 0
v 86 14
v 87 16
v 88 29
v 89 24
v 90 13
v 91 6
v 92 15
v 93 13
v 94 31
v 95 28
v 96 27
v 97 32
v 98 7
v 99 1
v 100 14
v 101 3
v 102 26
v 103 26
v 104 25
v 105 15
v 106 12
v 107 7
v 108 12
v 109 32
v 110 19
v 111 17
v 112 9
v 113 11
v 114 28
v 115 5
v 116 16
v 117 10
v 118 21
v 119 17
v 120 1
v 121 21
v 122 20
v 123 9
v 124 0
v 125 24
v 126 2
v 127 29
v 128 23
v 129 4
v 130 9
v 131 22
v 132 6
v 133 8
v 134 8
v 135 0
v 136 18
v 137 20
v 138 3
v 139 13
v 140 5
v 141 4
v 142 26
v 143 15
v 144 31
v 145 19
v 146 14
v 147 22
v 148 27
v 149 15
v 150 28
v 151 12
v 152 17
v 153 16
v 154 17
v 155 1
v 156 11
v 157 32
v 158 6
v 159 25
v 160 7
v 161 2
v 162 30
v 163 10
v 164 14
v 165 10
v 166 9
v 167 29
v 168 9
v 169 24
v 170 26
v 171 21
v 172 23
v 173 23
v 174 3
v 175 18
v 176 24
v 177 8
v 178 21
v 179 2
v 180 4
v 181 14
v 182 0
v 183 4
v 184 5
v 185 3
v 186 8
v 187 7
v 188 12
v 189 13
v 190 1
v 191 13
v 192 11
v 193 1
v 194 15
v 195 20
v 196 5
v 197 19
v 198 3
v 199 11
v 200 14
v 201 22
v 202 17
v 203 22
v 204 10
v 205 25
v 206 15
v 207 16
v 208 16
v 209 6
v 210 26
v 211 10
v 212 18
v 213 7
v 214 23
v 215 2
v 216 10
v 217 24
v 218 23
v 219 4
v 220 6
v 221 19
v 222 25
v 223 27
v 224 12
v 225 8
v 226 29
v 227 0
v 228 1
v 229 27
v 230 12
v 231 13
v 232 18
v 233 19
v 234 9
v 235 13
v 236 11
v 237 17
v 238 22
v 239 0
v 240 3
v 241 28
v 242 21
v 243 20
v 244 15
v 245 32
v 246 21
v 247 16
v 248 14
v 249 30
v 250 23
v 251 15
v 252 26
v 253 2
v 254 4
v 255 10
v 256 9
v 257 7
v 258 5
v 259 6
v 260 6
v 261 16
v 262 8
v 263 1
v 264 25
v 265 23
v 266 31
v 267 12
v 268 29
v 269 19
v 270 24
v 271 8
v 272 7
v 273 13
v 274 11
v 275 0
v 276 22
v 277 28
v 278 20
v 279 18
v 280 3
v 281 28
v 282 21
v 283 27
v 284 14
v 285 11
v 286 32
v 287 26
v 288 2
v 289 25
v 290 30
v 291 14
v 292 4
v 293 4
v 294 5
v 295 20
v 296 9
v 297 21
v 298 1
v 299 15
v 300 10
v 301 1
v 302 12
v 303 18
v 304 16
v 305 6
v 306 29
v 307 24
v 308 17
v 309 5
v 310 11
v 311 29
v 312 0
v 313 7
v 314 31
v 315 3
v 316 19
v 317 6
v 318 19
v 319 16
v 320 13
v 321 22
v 322 8
v 323 28
v 324 25
v 325 9
v 326 26
v 327 20
v 328 4
v 329 5
v 330 10
v 331 0
v 332 21
v 333 8
v 334 23
v 335 15
v 336 23
v 337 2
v 338 14
v 339 22
v 340 26
v 341 1
v 342 12
v 343 24
v 344 18
v 345 12
v 346 17
v 347 27
v 348 2
v 349 11
v 350 3
v 351 29
v 352 17
v 353 30
v 354 6
v 355 13
v 356 16
v 357 32
v 358 19
v 359 7
v 360 14
v 361 9
v 362 19
v 363 20
v 364 25
v 365 4
v 366 10
v 367 4
v 368 0
v 369 5
v 370 8
v 371 10
v 372 16
v 373 0
v 374 8
v 375 27
v 376 29
v 377 15
v 378 9
v 379 1
v 380 31
v 381 26
v 382 24
v 383 21
v 384 28
v 385 11
v 386 18
v 387 22
v 388 2
v 389 22
v 390 6
v 391 28
v 392 23
v 393 18
v 394 24
v 395 7
v 396 9
v 397 27
v 398 17
v 399 30
v 400 20
v 401 13
v 402 25
v 403 21
v 404 20
v 405 19
v 406 12
v 407 5
v 408 23
v 409 14
v 410 3
v 411 17
v 412 19
v 413 26
v 414 5
v 415 4
v 416 16
v 417 13
v 418 16
v 419 7
v 420 26
v 421 15
v 422 4
v 423 0
v 424 33
v 425 1
v 426 6
v 427 11
v 428 31
v 429 9
v 430 7
v 431 24
v 432 10
v 433 22
v 434 29
v 435 2
v 436 27
v 437 18
v 438 9
v 439 20
v 440 6
v 441 25
v 442 8
v 443 21
v 444 29
v 445 1
v 446 23
v 447 23
v 448 32
v 449 8
v 450 34
v 451 5
v 452 12
v 453 3
v 454 28
v 455 22
v 456 17
v 457 4
v 458 27
v 459 13
v 460 26
v 461 20
v 462 30
v 463 0
v 464 12
v 465 31
v 466 15
v 467 10
v 468 14
v 469 0
v 470 14
v 471 7
v 472 24
v 473 2
v 474 19
v 475 21
v 476 33
v 477 11
v 478 15
v 479 16
v 480 29
v 481 25
v 482 19
v 483 18
v 484 5
v 485 16
v 486 5
v 487 2
v 488 1
v 489 23
v 490 6
v 491 28
v 492 18
v 493 11
v 494 27
v 495 24
v 496 32
v 497 6
v 498 13
v 499 17
v 500 10
v 501 23
v 502 1
v 503 9
v 504 3
v 505 8
v 506 7
v 507 26
v 508 4
v 509 20
v 510 21
v 511 28
v 512 8
v 513 2
v 514 12
v 515 20
v 516 14
v 517 0
v 518 15
v 519 19
v 520 14
v 521 22
v 522 31
v 523 4
v 524 5
v 525 30
v 526 33
v 527 6
v 528 25
v 529 11
v 530 24
v 531 29
v 532 21
v 533 2
v 534 27
v 535 13
v 536 16
v 537 32
v 538 16
v 539 9
v 540 10
v 541 17
v 542 7
v 543 8
v 544 1
v 545 18
v 546 22
v 547 17
v 548 15
v 549 2
v 550 12
v 551 10
v 552 3
v 553 23
v 554 3
v 555 26
v 556 0
v 557 25
v 558 26
v 559 14
v 560 14
v 561 4
v 562 1
v 563 23
v 564 0
v 565 6
v 566 11
v 567 12
v 568 12
v 569 5
v 570 5
v 571 6
v 572 13
v 573 21
v 574 11
v 575 21
v 576 9
v 577 20
v 578 20
v 579 19
v 580 8
v 581 18
v 582 19
v 583 8
v 584 2
v 585 15
v 586 30
v 587 17
v 588 27
v 589 22
v 590 24
v 591 27
v 592 3
v 593 25
v 594 18
v 595 9
v 596 4
v 597 10
v 598 10
v 599 7
v 600 0
v 601 30
v 602 23
v 603 1
v 604 14
v 605 5
v 606 16
v 607 26
v 608 14
v 609 6
v 610 13
v 611 13
v 612 1
v 613 4
v 614 12
v 615 6
v 616 5
v 617 20
v 618 28
v 619 29
v 620 28
v 621 19
v 622 8
v 623 21
v 624 24
v 625 8
v 626 2
v 627 17
v 628 27
v 629 7
v 630 25
v 631 19
v 632 3
v 633 10
v 634 15
v 635 15
v 636 12
v 637 23
v 638 11
v 639 10
v 640 23
v 641 9
v 642 22
v 643 14
v 644 16
v 645 14
v 646 0
v 647 25
v 648 13
v 649 1
v 650 18
v 651 27
v 652 5
v 653 4
v 654 26
v 655 20
v 656 28
v 657 26
v 658 18
v 659 24
v 660 11
v 661 8
v 662 3
v 663 5
v 664 32
v 665 7
v 666 30
v 667 11
v 668 4
v 669 17
v 670 30
v 671 19
v 672 2
v 673 8
v 674 6
v 675 12
v 676 12
v 677 28
v 678 6
v 679 29
v 680 21
v 681 19
v 682 15
v 683 15
v 684 9
v 685 14
v 686 31
v 687 14
v 688 1
v 689 0
